p cnf 108 373
2 3 -4 0
-2 -3 -4 0
2 -3 4 0
-2 3 4 0
5 -1 0
5 -4 0
1 4 -5 0
-6 7 -8 0
6 -7 -8 0
-6 -7 8 0
6 7 8 0
-9 2 0
-9 -3 0
-2 3 9 0
10 8 0
10 -9 0
-8 9 -10 0
5 -10 -11 0
-5 10 -11 0
5 10 11 0
-5 -10 11 0
11 12 -13 0
-11 -12 -13 0
11 -12 13 0
-11 12 13 0
-16 14 0
-16 -15 0
-14 15 16 0
18 17 0
18 1 0
-17 -1 -18 0
-20 3 0
-20 19 0
-3 -19 20 0
22 20 0
22 -21 0
-20 21 -22 0
23 18 0
23 -22 0
-18 22 -23 0
-24 16 0
-24 -23 0
-16 23 24 0
-25 20 0
-25 12 0
-20 -12 25 0
-26 -24 0
-26 25 0
24 -25 26 0
27 12 0
27 21 0
-12 -21 -27 0
1 -27 -28 0
-1 27 -28 0
1 27 28 0
-1 -27 28 0
16 -19 -29 0
-16 19 -29 0
16 19 29 0
-16 -19 29 0
29 1 -30 0
-29 -1 -30 0
29 -1 30 0
-29 1 30 0
23 31 0
-23 31 0
-30 -31 -32 0
30 31 -32 0
-30 31 32 0
30 -31 32 0
33 16 0
33 3 0
-16 -3 -33 0
-34 -33 0
-34 -15 0
33 15 34 0
35 -34 0
35 -4 0
34 4 -35 0
-36 -4 0
-36 -14 0
4 14 36 0
37 36 0
37 16 0
-36 -16 -37 0
12 -37 -38 0
-12 37 -38 0
12 37 38 0
-12 -37 38 0
35 38 -39 0
-35 -38 -39 0
35 -38 39 0
-35 38 39 0
-40 32 0
-40 -39 0
-32 39 40 0
-41 -28 0
-41 -40 0
28 40 41 0
43 15 0
43 42 0
-15 -42 -43 0
-44 -20 0
-44 -9 0
20 9 44 0
-45 22 0
-45 -44 0
-22 44 45 0
46 -43 0
46 -45 0
43 45 -46 0
-41 -46 -47 0
41 46 -47 0
-41 46 47 0
41 -46 47 0
-48 26 0
-48 -47 0
-26 47 48 0
-49 -2 0
-49 -21 0
2 21 49 0
-50 7 0
-50 49 0
-7 -49 50 0
-50 -51 0
50 -51 0
53 15 0
53 -52 0
-15 52 -53 0
12 -3 -54 0
-12 3 -54 0
12 3 54 0
-12 -3 54 0
55 53 0
55 54 0
-53 -54 -55 0
51 55 -56 0
-51 -55 -56 0
51 -55 56 0
-51 55 56 0
57 18 0
57 -12 0
-18 12 -57 0
-58 -56 0
-58 -57 0
56 57 58 0
-59 20 0
-59 -4 0
-20 4 59 0
60 -59 0
60 44 0
59 -44 -60 0
-61 19 0
-61 -11 0
-19 11 61 0
-62 -22 0
-62 -61 0
22 61 62 0
60 -62 -63 0
-60 62 -63 0
60 62 63 0
-60 -62 63 0
-64 -58 0
-64 63 0
58 -63 64 0
65 -48 0
65 64 0
48 -64 -65 0
-66 11 0
-66 11 0
-11 66 0
67 14 0
67 -66 0
-14 66 -67 0
-68 -15 0
-68 -1 0
15 1 68 0
-14 10 -69 0
14 -10 -69 0
-14 -10 69 0
14 10 69 0
70 68 0
70 69 0
-68 -69 -70 0
-71 8 0
-71 -70 0
-8 70 71 0
5 -72 -73 0
-5 72 -73 0
5 72 73 0
-5 -72 73 0
-74 71 0
-74 73 0
-71 -73 74 0
75 -67 0
75 74 0
67 -74 -75 0
-19 16 -76 0
19 -16 -76 0
-19 -16 76 0
19 16 76 0
34 -36 -77 0
-34 36 -77 0
34 36 77 0
-34 -36 77 0
78 -23 0
78 77 0
23 -77 -78 0
-79 78 0
-79 19 0
-78 -19 79 0
-80 59 0
-80 36 0
-59 -36 80 0
-79 80 -81 0
79 -80 -81 0
-79 -80 81 0
79 80 81 0
-76 -81 -82 0
76 81 -82 0
-76 81 82 0
76 -81 82 0
-83 -19 0
-83 69 0
19 -69 83 0
82 83 -84 0
-82 -83 -84 0
82 -83 84 0
-82 83 84 0
-75 84 -85 0
75 -84 -85 0
-75 -84 85 0
75 84 85 0
86 -10 0
86 68 0
10 -68 -86 0
87 42 0
87 -21 0
-42 21 -87 0
88 -86 0
88 87 0
86 -87 -88 0
89 -85 0
89 88 0
85 -88 -89 0
36 -17 -90 0
-36 17 -90 0
36 17 90 0
-36 -17 90 0
89 90 -91 0
-89 -90 -91 0
89 -90 91 0
-89 90 91 0
-92 27 0
-92 -16 0
-27 16 92 0
-93 92 0
-93 -2 0
-92 2 93 0
94 93 0
94 -7 0
-93 7 -94 0
-95 -52 0
-95 -7 0
52 7 95 0
-96 -36 0
-96 -20 0
36 20 96 0
97 95 0
97 96 0
-95 -96 -97 0
-98 -94 0
-98 -97 0
94 97 98 0
-99 -50 0
-99 -92 0
50 92 99 0
10 2 -100 0
-10 -2 -100 0
10 -2 100 0
-10 2 100 0
-99 100 -101 0
99 -100 -101 0
-99 -100 101 0
99 100 101 0
52 -6 -102 0
-52 6 -102 0
52 6 102 0
-52 -6 102 0
-102 33 -103 0
102 -33 -103 0
-102 -33 103 0
102 33 103 0
-104 101 0
-104 -103 0
-101 103 104 0
-98 -104 -105 0
98 104 -105 0
-98 104 105 0
98 -104 105 0
106 -91 0
106 105 0
91 -105 -106 0
107 65 0
107 -106 0
-65 106 -107 0
-13 107 -108 0
13 -107 -108 0
-13 -107 108 0
13 107 108 0
-68 7 0
-42 82 0
79 1 81 76 -72 58 0
-12 19 -18 -21 10 0
54 37 89 -28 57 0
-106 98 -38 26 -23 0
-10 16 59 -83 -98 0
-103 -101 25 54 92 -66 0
-46 2 0
34 -55 -40 0
-102 -103 -11 0
-103 -1 24 0
92 -106 -53 -38 101 -66 0
73 24 -87 0
35 -37 26 -17 -3 0
108 -13 95 75 0
-72 -24 12 -16 0
60 -105 0
-68 -46 14 0
96 -51 34 103 0
98 88 0
-92 46 55 -76 -63 0
-38 -99 -49 0
-103 87 0
92 -34 -95 -78 103 0
-79 -29 47 -81 64 0
66 8 -47 -94 0
34 -57 0
-64 -73 68 -105 0
-54 -28 66 19 0
-43 49 58 41 0
71 -74 -52 5 0
-19 17 93 0
-66 -82 -63 -61 -4 98 0
51 72 -86 -23 -38 0
24 -83 -80 73 -84 54 0
82 79 -87 0
99 -56 -33 28 -34 0
71 -47 -104 -32 5 0
-6 -29 103 96 44 -107 0
62 -102 57 -44 9 -78 0
-93 19 35 75 77 0
-4 45 35 0
-6 24 0
67 -15 -9 -11 84 0
-76 -60 -17 1 0
-84 26 -51 -18 -82 -40 0
-93 107 0
-59 70 -48 -85 0
-42 69 108 0
-85 -89 -54 29 -24 0
-36 102 7 25 70 61 0
84 -92 48 -56 0
-41 -6 73 0
94 -51 0
-99 67 -45 -89 -64 90 0
99 15 0
33 -83 59 54 0
78 46 0
-49 -106 0
-22 36 0
16 18 -22 0
108 0
